% demand
num_movements = 60;
loading_factor = [1300, 1300, 900, 1750, 1550, 1600, 1150, 1450, 1400, 1150, 1050, 1350, 1700, 850, 1800, 1050, 1000, 1900, 1900, 1550, 1350, 1900, 1000, 1600, 1700, 850, 900, 1850, 1000, 2000, 850, 1550, 1050, 950, 1650, 1100, 1450, 1650, 1450, 1700, 1000, 1000, 1800, 850, 1100, 1100, 1350, 1350, 1000, 850, 1100, 1800, 1050, 1250, 1400, 950, 1050, 1050, 1050, 1250];
pickup_time = [0, 0, 0, 0, 0, 0, 0, 0, 1, 1, 1, 1, 1, 1, 1, 3, 3, 3, 4, 5, 5, 5, 5, 5, 6, 7, 8, 8, 8, 8, 8, 8, 8, 8, 9, 9, 9, 9, 9, 9, 9, 9, 10, 10, 11, 11, 11, 11, 12, 12, 12, 12, 12, 12, 12, 13, 13, 13, 13, 13];
delivery_time = [1, 1, 5, 1, 1, 1, 1, 1, 2, 2, 8, 2, 5, 9, 4, 5, 5, 5, 5, 7, 8, 8, 7, 8, 7, 8, 9, 9, 9, 9, 9, 9, 9, 9, 10, 13, 11, 11, 10, 11, 11, 11, 11, 12, 12, 13, 12, 12, 13, 14, 14, 13, 14, 14, 14, 14, 14, 14, 14, 14];

% transporter definition
total_capacity = 11000;
num_decks = 4;
capacity = [3000, 3000, 1000, 4000];

% ways out of decks
num_ways_out = 2;
paths_out = array3d(decks, ways_out, decks, [
% ways out of deck d1
2, 4, 0, 0, 3, 4, 0, 0, 

% ways out of deck d2
4, 0, 0, 0, 0, 0, 0, 0,	

% ways out of deck d3
4, 0, 0, 0, 0, 0, 0, 0,	

% ways out of deck d4
0, 0, 0, 0,	0, 0, 0, 0,	

]);

